words_hard_train/1569.qaiger
aag 130 24 0 1 106
2
4
8
12
16
20
28
30
34
36
48
50
62
64
76
78
90
92
174
184
186
208
216
218
260
6 3 5
10 6 9
14 10 13
18 14 17
22 19 20
24 18 21
26 23 25
32 28 30
38 35 37
40 34 36
42 39 41
44 32 42
46 45 41
52 49 51
54 48 50
56 53 55
58 47 56
60 59 55
66 63 65
68 62 64
70 67 69
72 61 70
74 73 69
80 77 79
82 76 78
84 81 83
86 75 84
88 87 83
94 91 93
96 90 92
98 95 97
100 88 99
102 89 98
104 101 103
106 26 105
108 27 104
110 109 19
112 74 85
114 113 87
116 114 16
118 43 5
120 45 4
122 33 43
124 120 123
126 29 31
128 127 33
130 128 2
132 125 131
134 119 133
136 134 7
138 46 57
140 139 59
142 140 8
144 137 143
146 141 9
148 145 147
150 60 71
152 151 73
154 152 12
156 149 155
158 157 15
160 153 13
162 115 17
164 161 163
166 158 164
168 117 167
170 110 168
172 107 171
176 25 174
178 24 175
180 177 179
182 103 97
188 185 187
190 184 186
192 189 191
194 182 193
196 183 192
198 195 197
200 181 198
202 173 201
204 180 199
206 203 205
210 178 209
212 179 208
214 211 213
220 216 219
222 217 218
224 221 223
226 197 191
228 224 226
230 225 227
232 229 231
234 214 233
236 207 235
238 215 232
240 237 239
242 140 152
244 242 114
246 244 104
248 246 42
250 128 198
252 248 250
254 252 233
256 241 254
258 240 255
260 257 259
i0 1 x2[0]
i1 1 x2[1]
i2 1 x2[2]
i3 1 x2[3]
i4 1 x2[4]
i5 1 x2[5]
i6 1 x1[0]
i7 2 y1[0]
i8 1 x1[1]
i9 2 y1[1]
i10 1 x1[2]
i11 2 y1[2]
i12 1 x1[3]
i13 2 y1[3]
i14 1 x1[4]
i15 2 y1[4]
i16 1 x1[5]
i17 2 y1[5]
i18 1 x2[6]
i19 1 x1[6]
i20 2 y1[6]
i21 1 x2[7]
i22 1 x1[7]
i23 2 y1[7]
o0 bv[0]
c
simplified
  >=
    unary minus
      1 x2
    add
      1
      add
        1 x1
        2 y1
