words_hard_train/1569.qaiger.qdimacs
p cnf 130 319
a 1 2 4 6 38 8 104 10 108 45 14 17 87 24 92 31 0
e 3 5 7 9 11 12 13 15 16 18 19 20 21 22 23 25 26 27 28 29 30 32 33 34 35 36 37 39 40 41 42 43 44 46 47 48 49 50 51 52 53 54 55 56 57 58 59 60 61 62 63 64 65 66 67 68 69 70 71 72 73 74 75 76 77 78 79 80 81 82 83 84 85 86 88 89 90 91 93 94 95 96 97 98 99 100 101 102 103 105 106 107 109 110 111 112 113 114 115 116 117 118 119 120 121 122 123 124 125 126 127 128 129 130 0
1 2 3 0
-1 -3 0
-2 -3 0
-3 4 5 0
3 -5 0
-4 -5 0
-5 6 7 0
5 -7 0
-6 -7 0
-7 8 9 0
7 -9 0
-8 -9 0
9 -10 11 0
-9 -11 0
10 -11 0
-9 10 12 0
9 -12 0
-10 -12 0
11 12 13 0
-11 -13 0
-12 -13 0
-14 -15 16 0
14 -16 0
15 -16 0
17 18 19 0
-17 -19 0
-18 -19 0
-17 -18 20 0
17 -20 0
18 -20 0
19 20 21 0
-19 -21 0
-20 -21 0
-16 -21 22 0
16 -22 0
21 -22 0
22 20 23 0
-22 -23 0
-20 -23 0
24 25 26 0
-24 -26 0
-25 -26 0
-24 -25 27 0
24 -27 0
25 -27 0
26 27 28 0
-26 -28 0
-27 -28 0
23 -28 29 0
-23 -29 0
28 -29 0
29 27 30 0
-29 -30 0
-27 -30 0
31 32 33 0
-31 -33 0
-32 -33 0
-31 -32 34 0
31 -34 0
32 -34 0
33 34 35 0
-33 -35 0
-34 -35 0
30 -35 36 0
-30 -36 0
35 -36 0
36 34 37 0
-36 -37 0
-34 -37 0
38 39 40 0
-38 -40 0
-39 -40 0
-38 -39 41 0
38 -41 0
39 -41 0
40 41 42 0
-40 -42 0
-41 -42 0
37 -42 43 0
-37 -43 0
42 -43 0
43 41 44 0
-43 -44 0
-41 -44 0
45 46 47 0
-45 -47 0
-46 -47 0
-45 -46 48 0
45 -48 0
46 -48 0
47 48 49 0
-47 -49 0
-48 -49 0
-44 49 50 0
44 -50 0
-49 -50 0
44 -49 51 0
-44 -51 0
49 -51 0
50 51 52 0
-50 -52 0
-51 -52 0
-13 52 53 0
13 -53 0
-52 -53 0
13 -52 54 0
-13 -54 0
52 -54 0
54 9 55 0
-54 -55 0
-9 -55 0
-37 42 56 0
37 -56 0
-42 -56 0
56 43 57 0
-56 -57 0
-43 -57 0
-57 -8 58 0
57 -58 0
8 -58 0
21 2 59 0
-21 -59 0
-2 -59 0
22 -2 60 0
-22 -60 0
2 -60 0
16 21 61 0
-16 -61 0
-21 -61 0
-60 61 62 0
60 -62 0
-61 -62 0
14 15 63 0
-14 -63 0
-15 -63 0
63 16 64 0
-63 -64 0
-16 -64 0
-64 -1 65 0
64 -65 0
1 -65 0
62 65 66 0
-62 -66 0
-65 -66 0
59 66 67 0
-59 -67 0
-66 -67 0
-67 3 68 0
67 -68 0
-3 -68 0
-23 28 69 0
23 -69 0
-28 -69 0
69 29 70 0
-69 -70 0
-29 -70 0
-70 -4 71 0
70 -71 0
4 -71 0
68 71 72 0
-68 -72 0
-71 -72 0
70 4 73 0
-70 -73 0
-4 -73 0
72 73 74 0
-72 -74 0
-73 -74 0
-30 35 75 0
30 -75 0
-35 -75 0
75 36 76 0
-75 -76 0
-36 -76 0
-76 -6 77 0
76 -77 0
6 -77 0
74 77 78 0
-74 -78 0
-77 -78 0
78 7 79 0
-78 -79 0
-7 -79 0
76 6 80 0
-76 -80 0
-6 -80 0
57 8 81 0
-57 -81 0
-8 -81 0
80 81 82 0
-80 -82 0
-81 -82 0
-79 -82 83 0
79 -83 0
82 -83 0
58 83 84 0
-58 -84 0
-83 -84 0
-55 -84 85 0
55 -85 0
84 -85 0
53 85 86 0
-53 -86 0
-85 -86 0
12 -87 88 0
-12 -88 0
87 -88 0
-12 87 89 0
12 -89 0
-87 -89 0
88 89 90 0
-88 -90 0
-89 -90 0
51 48 91 0
-51 -91 0
-48 -91 0
92 93 94 0
-92 -94 0
-93 -94 0
-92 -93 95 0
92 -95 0
93 -95 0
94 95 96 0
-94 -96 0
-95 -96 0
-91 96 97 0
91 -97 0
-96 -97 0
91 -96 98 0
-91 -98 0
96 -98 0
97 98 99 0
-97 -99 0
-98 -99 0
90 -99 100 0
-90 -100 0
99 -100 0
86 100 101 0
-86 -101 0
-100 -101 0
-90 99 102 0
90 -102 0
-99 -102 0
101 102 103 0
-101 -103 0
-102 -103 0
-89 104 105 0
89 -105 0
-104 -105 0
89 -104 106 0
-89 -106 0
104 -106 0
105 106 107 0
-105 -107 0
-106 -107 0
-108 109 110 0
108 -110 0
-109 -110 0
108 -109 111 0
-108 -111 0
109 -111 0
110 111 112 0
-110 -112 0
-111 -112 0
98 95 113 0
-98 -113 0
-95 -113 0
-112 -113 114 0
112 -114 0
113 -114 0
112 113 115 0
-112 -115 0
-113 -115 0
114 115 116 0
-114 -116 0
-115 -116 0
-107 116 117 0
107 -117 0
-116 -117 0
103 117 118 0
-103 -118 0
-117 -118 0
107 -116 119 0
-107 -119 0
116 -119 0
118 119 120 0
-118 -120 0
-119 -120 0
-70 -76 121 0
70 -121 0
76 -121 0
-121 -57 122 0
121 -122 0
57 -122 0
-122 -52 123 0
122 -123 0
52 -123 0
-123 -21 124 0
123 -124 0
21 -124 0
-64 -99 125 0
64 -125 0
99 -125 0
-124 -125 126 0
124 -126 0
125 -126 0
-126 116 127 0
126 -127 0
-116 -127 0
120 -127 128 0
-120 -128 0
127 -128 0
-120 127 129 0
120 -129 0
-127 -129 0
128 129 130 0
-128 -130 0
-129 -130 0
130 0
